(set-logic QF_LRA)
(set-info :ran/ran_8_1_lia.smt2)
(set-info :smt-lib-version 2.0)
(declare-fun x0 () Real)
(declare-fun x1 () Real)
(declare-fun x2 () Real)
(declare-fun x3 () Real)
(declare-fun x4 () Real)
(declare-fun x5 () Real)
(declare-fun x6 () Real)
(declare-fun x7 () Real)
(define-fun ie0 () Bool (<= (+ (* (- 2) x4) (* 66 x5) ) 46))
(define-fun ie1 () Bool (<= (+ (* (- 78) x6) (* (- 4) x2) ) 72))
(define-fun ie2 () Bool (<= (+ (* (- 23) x3) (* (- 17) x0) ) 86))
(define-fun ie3 () Bool (<= (+ (* (- 60) x4) (* (- 9) x5) ) 44))
(define-fun ie4 () Bool (<= (+ (* (- 94) x6) (* (- 98) x7) ) (- 58)))
(define-fun ie5 () Bool (<= (+ (* (- 28) x7) (* 16 x6) ) 60))
(define-fun ie6 () Bool (<= (+ (* (- 11) x0) (* 57 x7) ) (- 7)))
(define-fun ie7 () Bool (<= (+ (* (- 45) x5) (* 71 x7) ) 27))
(assert ie0)
(assert ie1)
(assert ie2)
(assert ie3)
(assert ie4)
(assert ie5)
(assert ie6)
(assert ie7)
(check-sat)
(exit)
